(set-logic QF_LRA)
(declare-fun X0 () Real )
(declare-fun Y0 () Real )
(declare-fun X1 () Real )
(declare-fun Y1 () Real )
(declare-fun X2 () Real )
(declare-fun Y2 () Real )
(declare-fun X3 () Real )
(declare-fun Y3 () Real )
(declare-fun X4 () Real )
(declare-fun Y4 () Real )
(declare-fun X5 () Real )
(declare-fun Y5 () Real )
(declare-fun X6 () Real )
(declare-fun Y6 () Real )
(declare-fun X7 () Real )
(declare-fun Y7 () Real )
(declare-fun X8 () Real )
(declare-fun Y8 () Real )
(declare-fun X9 () Real )
(declare-fun Y9 () Real )
(declare-fun X10 () Real )
(declare-fun Y10 () Real )
(declare-fun X11 () Real )
(declare-fun Y11 () Real )
(declare-fun Z () Real )
(declare-fun k () Real )
(assert (let
(( $goal (>= Z k) ))
(let
((
$phi ( and 
( or ( <= ( + X0 41 ) X1 )  ( <= ( + X1 100 ) X0 )  ( <= ( + Y0 77 ) Y1 )  ( <= ( + Y1 3 ) Y0 )  )
( or ( <= ( + X0 41 ) X2 )  ( <= ( + X2 74 ) X0 )  ( <= ( + Y0 77 ) Y2 )  ( <= ( + Y2 21 ) Y0 )  )
( or ( <= ( + X0 41 ) X3 )  ( <= ( + X3 47 ) X0 )  ( <= ( + Y0 77 ) Y3 )  ( <= ( + Y3 11 ) Y0 )  )
( or ( <= ( + X0 41 ) X4 )  ( <= ( + X4 40 ) X0 )  ( <= ( + Y0 77 ) Y4 )  ( <= ( + Y4 58 ) Y0 )  )
( or ( <= ( + X0 41 ) X5 )  ( <= ( + X5 53 ) X0 )  ( <= ( + Y0 77 ) Y5 )  ( <= ( + Y5 58 ) Y0 )  )
( or ( <= ( + X0 41 ) X6 )  ( <= ( + X6 97 ) X0 )  ( <= ( + Y0 77 ) Y6 )  ( <= ( + Y6 10 ) Y0 )  )
( or ( <= ( + X0 41 ) X7 )  ( <= ( + X7 21 ) X0 )  ( <= ( + Y0 77 ) Y7 )  ( <= ( + Y7 76 ) Y0 )  )
( or ( <= ( + X0 41 ) X8 )  ( <= ( + X8 92 ) X0 )  ( <= ( + Y0 77 ) Y8 )  ( <= ( + Y8 67 ) Y0 )  )
( or ( <= ( + X0 41 ) X9 )  ( <= ( + X9 62 ) X0 )  ( <= ( + Y0 77 ) Y9 )  ( <= ( + Y9 89 ) Y0 )  )
( or ( <= ( + X0 41 ) X10 )  ( <= ( + X10 33 ) X0 )  ( <= ( + Y0 77 ) Y10 )  ( <= ( + Y10 66 ) Y0 )  )
( or ( <= ( + X0 41 ) X11 )  ( <= ( + X11 2 ) X0 )  ( <= ( + Y0 77 ) Y11 )  ( <= ( + Y11 6 ) Y0 )  )
( or ( <= ( + X1 100 ) X2 )  ( <= ( + X2 74 ) X1 )  ( <= ( + Y1 3 ) Y2 )  ( <= ( + Y2 21 ) Y1 )  )
( or ( <= ( + X1 100 ) X3 )  ( <= ( + X3 47 ) X1 )  ( <= ( + Y1 3 ) Y3 )  ( <= ( + Y3 11 ) Y1 )  )
( or ( <= ( + X1 100 ) X4 )  ( <= ( + X4 40 ) X1 )  ( <= ( + Y1 3 ) Y4 )  ( <= ( + Y4 58 ) Y1 )  )
( or ( <= ( + X1 100 ) X5 )  ( <= ( + X5 53 ) X1 )  ( <= ( + Y1 3 ) Y5 )  ( <= ( + Y5 58 ) Y1 )  )
( or ( <= ( + X1 100 ) X6 )  ( <= ( + X6 97 ) X1 )  ( <= ( + Y1 3 ) Y6 )  ( <= ( + Y6 10 ) Y1 )  )
( or ( <= ( + X1 100 ) X7 )  ( <= ( + X7 21 ) X1 )  ( <= ( + Y1 3 ) Y7 )  ( <= ( + Y7 76 ) Y1 )  )
( or ( <= ( + X1 100 ) X8 )  ( <= ( + X8 92 ) X1 )  ( <= ( + Y1 3 ) Y8 )  ( <= ( + Y8 67 ) Y1 )  )
( or ( <= ( + X1 100 ) X9 )  ( <= ( + X9 62 ) X1 )  ( <= ( + Y1 3 ) Y9 )  ( <= ( + Y9 89 ) Y1 )  )
( or ( <= ( + X1 100 ) X10 )  ( <= ( + X10 33 ) X1 )  ( <= ( + Y1 3 ) Y10 )  ( <= ( + Y10 66 ) Y1 )  )
( or ( <= ( + X1 100 ) X11 )  ( <= ( + X11 2 ) X1 )  ( <= ( + Y1 3 ) Y11 )  ( <= ( + Y11 6 ) Y1 )  )
( or ( <= ( + X2 74 ) X3 )  ( <= ( + X3 47 ) X2 )  ( <= ( + Y2 21 ) Y3 )  ( <= ( + Y3 11 ) Y2 )  )
( or ( <= ( + X2 74 ) X4 )  ( <= ( + X4 40 ) X2 )  ( <= ( + Y2 21 ) Y4 )  ( <= ( + Y4 58 ) Y2 )  )
( or ( <= ( + X2 74 ) X5 )  ( <= ( + X5 53 ) X2 )  ( <= ( + Y2 21 ) Y5 )  ( <= ( + Y5 58 ) Y2 )  )
( or ( <= ( + X2 74 ) X6 )  ( <= ( + X6 97 ) X2 )  ( <= ( + Y2 21 ) Y6 )  ( <= ( + Y6 10 ) Y2 )  )
( or ( <= ( + X2 74 ) X7 )  ( <= ( + X7 21 ) X2 )  ( <= ( + Y2 21 ) Y7 )  ( <= ( + Y7 76 ) Y2 )  )
( or ( <= ( + X2 74 ) X8 )  ( <= ( + X8 92 ) X2 )  ( <= ( + Y2 21 ) Y8 )  ( <= ( + Y8 67 ) Y2 )  )
( or ( <= ( + X2 74 ) X9 )  ( <= ( + X9 62 ) X2 )  ( <= ( + Y2 21 ) Y9 )  ( <= ( + Y9 89 ) Y2 )  )
( or ( <= ( + X2 74 ) X10 )  ( <= ( + X10 33 ) X2 )  ( <= ( + Y2 21 ) Y10 )  ( <= ( + Y10 66 ) Y2 )  )
( or ( <= ( + X2 74 ) X11 )  ( <= ( + X11 2 ) X2 )  ( <= ( + Y2 21 ) Y11 )  ( <= ( + Y11 6 ) Y2 )  )
( or ( <= ( + X3 47 ) X4 )  ( <= ( + X4 40 ) X3 )  ( <= ( + Y3 11 ) Y4 )  ( <= ( + Y4 58 ) Y3 )  )
( or ( <= ( + X3 47 ) X5 )  ( <= ( + X5 53 ) X3 )  ( <= ( + Y3 11 ) Y5 )  ( <= ( + Y5 58 ) Y3 )  )
( or ( <= ( + X3 47 ) X6 )  ( <= ( + X6 97 ) X3 )  ( <= ( + Y3 11 ) Y6 )  ( <= ( + Y6 10 ) Y3 )  )
( or ( <= ( + X3 47 ) X7 )  ( <= ( + X7 21 ) X3 )  ( <= ( + Y3 11 ) Y7 )  ( <= ( + Y7 76 ) Y3 )  )
( or ( <= ( + X3 47 ) X8 )  ( <= ( + X8 92 ) X3 )  ( <= ( + Y3 11 ) Y8 )  ( <= ( + Y8 67 ) Y3 )  )
( or ( <= ( + X3 47 ) X9 )  ( <= ( + X9 62 ) X3 )  ( <= ( + Y3 11 ) Y9 )  ( <= ( + Y9 89 ) Y3 )  )
( or ( <= ( + X3 47 ) X10 )  ( <= ( + X10 33 ) X3 )  ( <= ( + Y3 11 ) Y10 )  ( <= ( + Y10 66 ) Y3 )  )
( or ( <= ( + X3 47 ) X11 )  ( <= ( + X11 2 ) X3 )  ( <= ( + Y3 11 ) Y11 )  ( <= ( + Y11 6 ) Y3 )  )
( or ( <= ( + X4 40 ) X5 )  ( <= ( + X5 53 ) X4 )  ( <= ( + Y4 58 ) Y5 )  ( <= ( + Y5 58 ) Y4 )  )
( or ( <= ( + X4 40 ) X6 )  ( <= ( + X6 97 ) X4 )  ( <= ( + Y4 58 ) Y6 )  ( <= ( + Y6 10 ) Y4 )  )
( or ( <= ( + X4 40 ) X7 )  ( <= ( + X7 21 ) X4 )  ( <= ( + Y4 58 ) Y7 )  ( <= ( + Y7 76 ) Y4 )  )
( or ( <= ( + X4 40 ) X8 )  ( <= ( + X8 92 ) X4 )  ( <= ( + Y4 58 ) Y8 )  ( <= ( + Y8 67 ) Y4 )  )
( or ( <= ( + X4 40 ) X9 )  ( <= ( + X9 62 ) X4 )  ( <= ( + Y4 58 ) Y9 )  ( <= ( + Y9 89 ) Y4 )  )
( or ( <= ( + X4 40 ) X10 )  ( <= ( + X10 33 ) X4 )  ( <= ( + Y4 58 ) Y10 )  ( <= ( + Y10 66 ) Y4 )  )
( or ( <= ( + X4 40 ) X11 )  ( <= ( + X11 2 ) X4 )  ( <= ( + Y4 58 ) Y11 )  ( <= ( + Y11 6 ) Y4 )  )
( or ( <= ( + X5 53 ) X6 )  ( <= ( + X6 97 ) X5 )  ( <= ( + Y5 58 ) Y6 )  ( <= ( + Y6 10 ) Y5 )  )
( or ( <= ( + X5 53 ) X7 )  ( <= ( + X7 21 ) X5 )  ( <= ( + Y5 58 ) Y7 )  ( <= ( + Y7 76 ) Y5 )  )
( or ( <= ( + X5 53 ) X8 )  ( <= ( + X8 92 ) X5 )  ( <= ( + Y5 58 ) Y8 )  ( <= ( + Y8 67 ) Y5 )  )
( or ( <= ( + X5 53 ) X9 )  ( <= ( + X9 62 ) X5 )  ( <= ( + Y5 58 ) Y9 )  ( <= ( + Y9 89 ) Y5 )  )
( or ( <= ( + X5 53 ) X10 )  ( <= ( + X10 33 ) X5 )  ( <= ( + Y5 58 ) Y10 )  ( <= ( + Y10 66 ) Y5 )  )
( or ( <= ( + X5 53 ) X11 )  ( <= ( + X11 2 ) X5 )  ( <= ( + Y5 58 ) Y11 )  ( <= ( + Y11 6 ) Y5 )  )
( or ( <= ( + X6 97 ) X7 )  ( <= ( + X7 21 ) X6 )  ( <= ( + Y6 10 ) Y7 )  ( <= ( + Y7 76 ) Y6 )  )
( or ( <= ( + X6 97 ) X8 )  ( <= ( + X8 92 ) X6 )  ( <= ( + Y6 10 ) Y8 )  ( <= ( + Y8 67 ) Y6 )  )
( or ( <= ( + X6 97 ) X9 )  ( <= ( + X9 62 ) X6 )  ( <= ( + Y6 10 ) Y9 )  ( <= ( + Y9 89 ) Y6 )  )
( or ( <= ( + X6 97 ) X10 )  ( <= ( + X10 33 ) X6 )  ( <= ( + Y6 10 ) Y10 )  ( <= ( + Y10 66 ) Y6 )  )
( or ( <= ( + X6 97 ) X11 )  ( <= ( + X11 2 ) X6 )  ( <= ( + Y6 10 ) Y11 )  ( <= ( + Y11 6 ) Y6 )  )
( or ( <= ( + X7 21 ) X8 )  ( <= ( + X8 92 ) X7 )  ( <= ( + Y7 76 ) Y8 )  ( <= ( + Y8 67 ) Y7 )  )
( or ( <= ( + X7 21 ) X9 )  ( <= ( + X9 62 ) X7 )  ( <= ( + Y7 76 ) Y9 )  ( <= ( + Y9 89 ) Y7 )  )
( or ( <= ( + X7 21 ) X10 )  ( <= ( + X10 33 ) X7 )  ( <= ( + Y7 76 ) Y10 )  ( <= ( + Y10 66 ) Y7 )  )
( or ( <= ( + X7 21 ) X11 )  ( <= ( + X11 2 ) X7 )  ( <= ( + Y7 76 ) Y11 )  ( <= ( + Y11 6 ) Y7 )  )
( or ( <= ( + X8 92 ) X9 )  ( <= ( + X9 62 ) X8 )  ( <= ( + Y8 67 ) Y9 )  ( <= ( + Y9 89 ) Y8 )  )
( or ( <= ( + X8 92 ) X10 )  ( <= ( + X10 33 ) X8 )  ( <= ( + Y8 67 ) Y10 )  ( <= ( + Y10 66 ) Y8 )  )
( or ( <= ( + X8 92 ) X11 )  ( <= ( + X11 2 ) X8 )  ( <= ( + Y8 67 ) Y11 )  ( <= ( + Y11 6 ) Y8 )  )
( or ( <= ( + X9 62 ) X10 )  ( <= ( + X10 33 ) X9 )  ( <= ( + Y9 89 ) Y10 )  ( <= ( + Y10 66 ) Y9 )  )
( or ( <= ( + X9 62 ) X11 )  ( <= ( + X11 2 ) X9 )  ( <= ( + Y9 89 ) Y11 )  ( <= ( + Y11 6 ) Y9 )  )
( or ( <= ( + X10 33 ) X11 )  ( <= ( + X11 2 ) X10 )  ( <= ( + Y10 66 ) Y11 )  ( <= ( + Y11 6 ) Y10 )  )
( >= X0 0)
( <= ( + X0 41) Z)
( >= Y0 0)
( <= ( + Y0 77 ) 173)
( >= X1 0)
( <= ( + X1 100) Z)
( >= Y1 0)
( <= ( + Y1 3 ) 173)
( >= X2 0)
( <= ( + X2 74) Z)
( >= Y2 0)
( <= ( + Y2 21 ) 173)
( >= X3 0)
( <= ( + X3 47) Z)
( >= Y3 0)
( <= ( + Y3 11 ) 173)
( >= X4 0)
( <= ( + X4 40) Z)
( >= Y4 0)
( <= ( + Y4 58 ) 173)
( >= X5 0)
( <= ( + X5 53) Z)
( >= Y5 0)
( <= ( + Y5 58 ) 173)
( >= X6 0)
( <= ( + X6 97) Z)
( >= Y6 0)
( <= ( + Y6 10 ) 173)
( >= X7 0)
( <= ( + X7 21) Z)
( >= Y7 0)
( <= ( + Y7 76 ) 173)
( >= X8 0)
( <= ( + X8 92) Z)
( >= Y8 0)
( <= ( + Y8 67 ) 173)
( >= X9 0)
( <= ( + X9 62) Z)
( >= Y9 0)
( <= ( + Y9 89 ) 173)
( >= X10 0)
( <= ( + X10 33) Z)
( >= Y10 0)
( <= ( + Y10 66 ) 173)
( >= X11 0)
( <= ( + X11 2) Z)
( >= Y11 0)
( <= ( + Y11 6 ) 173)
) )
)(=> $phi $goal))))